10	5
0	3	3	1	2
1	3	8	5	6
2	1	4
3	3	6	8	5
4	1	9
5	2	10	7
6	2	10	7
7	1	4
8	2	10	9
9	1	11
10	1	11
11	0
0	0	0	0	0	0	0
1	2	5	1	3	4	1
2	3	1	4	3	3	4
3	1	1	4	3	1	3
4	1	3	1	4	2	5
5	2	2	1	2	2	4
6	5	3	5	5	4	1
7	5	4	1	2	1	1
8	3	3	5	3	2	1
9	4	5	2	4	2	3
10	9	2	2	4	1	5
11	0	0	0	0	0	0
6	7	7	7	7
